#p m062x/6-311+g(2df,2p) opt=(calcfc,verytight,gdiis,maxcycles=900) freq iop(7/33=1,2/16=3) 

Gaussian input prepared by ASE

0 1
O                 1.1998000000       -0.7252000000       -0.3881000000
O                 0.0611197416        0.0294756445        1.4278873680
C                -1.2420432182       -1.2063490405       -0.0356507006
C                -1.9145132626        0.0886953431       -0.4598519546
C                 2.2794000000        0.1649000000       -0.1879000000
C                 0.1078000000       -0.8144000000        0.4807000000
H                -1.1495381829       -1.9031453871       -0.8751311052
H                -1.8302637199       -1.6790055986        0.7620745839
H                -1.4412592869        0.9619235334        0.0569230179
H                -2.9975328665        0.0758516614       -0.2597866966
H                -1.7113660339        0.2036254884       -1.5365609985
H                 2.3783451711        0.8253457438       -1.0850712950
H                 2.1505514314        0.8131882042        0.6994072132
H                 3.2236038780       -0.4242471835       -0.0932204724



