%nprocshared=20
%mem=5GB
#p m062x/6-311+g(2df,2p) opt=(calcfc,verytight,gdiis,maxcycles=900) freq iop(7/33=1,2/16=3) 

Gaussian input prepared by ASE

0 2
O                 0.6393616771       -1.0111896499        0.4704153031
C                -1.7886845096       -0.7483930968        0.2493188952
C                -0.2005829411        1.1454639868       -0.5146890502
C                 1.9254820344       -0.3835169346        0.2348904204
C                -0.4451483506       -0.2356918346       -0.0708434498
H                -2.5644142422        0.0383136367        0.0750549541
H                -2.0746092824       -1.6418193512       -0.3869901832
H                -1.8737855886       -1.0959103348        1.3200112309
H                 0.7959101303        1.2489641854       -1.0234673883
H                -0.2061806369        1.8990801119        0.3382747876
H                -0.9976320467        1.4773962534       -1.2311892648
H                 2.7078869586       -1.0854348734        0.6205169427
H                 2.0875226562       -0.2037387161       -0.8647489275
H                 1.9947201813        0.5966435114        0.7853551334



