%nprocshared=20
%mem=5GB
#p m062x/6-311+g(2df,2p) Opt=(CalcFC,ModRedun)

Gaussian Input Prepared from Scan Object

0 2
O     0.5991844646     -0.8632228953     0.4823799086
C     -1.7365885453     -0.7643727358     0.1725345403
C     -0.2570116179     1.2650406795     -0.4047883753
C     1.9222989221     -0.4816327389     0.1804412627
C     -0.4029159794     -0.2031326489     -0.1727867916
H     -2.4968589541     -0.4032640489     -0.5181674452
H     -1.7132613557     -1.8525474006     0.1346923806
H     -2.0428675406     -0.475738383     1.1873534125
H     0.6346920506     1.5172157671     -0.97859254
H     -0.2052203251     1.8182820958     0.5444627204
H     -1.1216210855     1.6336210865     -0.9531530804
H     2.5742743028     -1.1963626852     0.6748248033
H     2.0990601403     -0.5146734995     -0.8977223461
H     2.1466815632     0.5209543014     0.5504309537

B 10 3
B 12 4
B 11 3
B 14 4
B 5 1
B 6 2
B 7 2
B 3 5
B 8 2
B 2 5
B 1 4
B 9 3
B 13 4
D 5 1 4 13 S 36 10.0


