%nprocshared=20
%mem=5GB
#p m062x/6-311+g(2df,2p) Opt=(CalcFC,ModRedun)

Gaussian Input Prepared from Scan Object

0 2
O     0.5550819505     0.0413097225     -0.9657761007
C     -0.6443449623     0.5927915867     -0.4706653832
C     1.4706288511     -0.2815383789     0.0514504434
C     -1.4779007991     -0.3917297997     0.266578951
H     -1.1750961359     0.966646201     -1.353734805
H     -0.4276378448     1.4627034056     0.1638832287
H     2.3675173925     -0.6638147577     -0.4292811672
H     1.7293037603     0.6055554969     0.6406670851
H     1.0718799569     -1.0437493156     0.7276035174
H     -1.526135244     -1.410260976     -0.0898897337
H     -2.1820405832     -0.0695453815     1.0179931294

B 7 3
B 5 2
B 10 4
B 2 4
B 8 3
B 1 2
B 3 1
B 9 3
B 6 2
B 11 4
D 5 2 4 11 S 72 10.0


