%nprocshared=20
%mem=5GB
#p m062x/6-311+g(2df,2p) opt=(calcfc,verytight,gdiis,maxcycles=900) freq iop(7/33=1,2/16=3) 

Gaussian input prepared by ASE

0 2
O                 1.7969881536       -0.2425947885       -0.4372874224
O                 0.5954251946        0.7851923620        1.2623619339
C                 0.5087284699        1.7732803347       -0.9546329844
C                 1.6431227586        2.2830638177       -1.8046613510
C                 0.9240920392        0.7853044196        0.0963877831
C                 2.1296183388       -1.2227977551        0.5281765439
H                -0.0179146665        2.6314726547       -0.4650828607
H                -0.2485987255        1.2821765807       -1.6252575032
H                 2.3983641452        2.8251456534       -1.1833342517
H                 2.1608924950        1.4387384110       -2.3246474639
H                 1.2601798857        2.9913524784       -2.5813170446
H                 2.1076366736       -0.8296111675        1.5768047132
H                 3.0488574936       -1.7735775215        0.2120984531



