%nprocshared=20
%mem=5GB
#p m062x/6-311+g(2df,2p) Opt=(CalcFC,ModRedun)

Gaussian Input Prepared from Scan Object

0 2
O     1.6331005401     -0.2676725575     -0.3635448779
O     0.891294691     1.0610746712     1.2891797427
C     0.494137699     1.6949793888     -1.005186337
C     1.652454403     2.3374521965     -1.7727410202
C     0.9954732805     0.8356091689     0.1198413927
C     2.1613531807     -1.1467691666     0.5282785174
H     -0.1529791004     2.4504800241     -0.5674059909
H     -0.0967451913     1.0718835192     -1.6770653262
H     2.2571232689     2.9564996824     -1.1113307321
H     2.2929885936     1.5762254894     -2.2135141183
H     1.2689211026     2.9686255863     -2.5717899573
H     2.1779010676     -0.8751452692     1.5685892191
H     2.7323687206     -1.936097254     0.0762980334

B 4 3
B 9 4
B 12 6
B 13 6
B 1 6
B 7 3
B 3 5
B 10 4
B 8 3
B 11 4
B 2 5
B 5 1
D 13 3 5 2 S 72 10.0


