%nprocshared=20
%mem=5GB
#p m062x/6-311+g(2df,2p) Opt=(CalcFC,ModRedun)

Gaussian Input Prepared from Scan Object

0 2
O     0.6234015288     -0.741876209     0.5721377733
C     -0.7290713183     -0.7154530601     0.1903427921
C     1.317292546     0.405419005     0.1599460579
C     -1.4063197311     -1.9332275342     0.6814196251
H     -1.2070255976     0.1939694723     0.5972756463
H     -0.8128956069     -0.6366166686     -0.9048776936
H     0.8840518828     1.3105132751     0.6001026393
H     2.3469004108     0.3049857656     0.4935456981
H     1.3024991915     0.5073747572     -0.9308582649
H     -0.9597361839     -2.4997924112     1.4826677703
H     -2.4015647274     -2.1738923165     0.3440866957

B 11 4
B 1 2
B 6 2
B 2 4
B 7 3
B 8 3
B 9 3
B 5 2
B 10 4
B 3 1
D 3 1 2 6 S 36 10.0


