%nprocshared=20
%mem=5GB
#p m062x/6-311+g(2df,2p) opt=(calcfc,verytight,gdiis,maxcycles=900) freq iop(7/33=1,2/16=3) 

Gaussian input prepared by ASE

0 2
O                 0.6078200000        0.5390550000       -0.4010990000
C                -0.6570570000        0.6038490000        0.2183360000
C                 1.4355980000       -0.4567630000        0.1469100000
C                -1.5147560000       -0.5709300000       -0.0844780000
H                -0.5414650000        0.7241040000        1.3039880000
H                -1.1144880000        1.5265180000       -0.1568930000
H                 1.0076790000       -1.4552960000        0.0162940000
H                 2.3899560000       -0.4061270000       -0.3710480000
H                 1.5981800000       -0.2848380000        1.2169500000
H                -1.4811710000       -1.0044850000       -1.0732680000
H                -2.3039600000       -0.8692470000        0.5881640000



