%nprocshared=20
%mem=5GB
#p m062x/6-311+g(2df,2p) Opt=(CalcFC,ModRedun) 

Gaussian input prepared by ASE

0 1
C                 0.5604805404        0.4622390181        0.5471594362
C                -0.7014810028       -0.2611187258        1.0140722469
C                 1.1515346343       -0.1237839525       -0.7252819067
C                -1.8524771424       -0.1792341431        0.0146390248
O                 2.3501960401        0.5185069059       -1.1147716717
H                -0.4639452871       -1.3094155327        1.2137331723
H                -1.0198291480        0.1669989537        1.9657786878
H                 0.3474319317        1.5208723189        0.3792222072
H                 1.3178093624        0.4128648475        1.3358332784
H                 0.4677967980        0.0076552392       -1.5628212820
H                 1.3099954534       -1.2020011814       -0.5983290324
H                -2.7626585697       -0.6118500636        0.4278796399
H                -2.0634484359        0.8589995299       -0.2470753899
H                -1.6251008831       -0.7140145636       -0.9071709728
H                 2.9837957087        0.4530813496       -0.3974674380

B 1 8
B 1 3
B 1 2
B 1 9
B 2 7
B 2 4
B 2 6
B 3 5
B 3 10
B 3 11
B 4 12
B 4 13
B 4 14
B 5 15
D 11 3 5 15 S 36 10.0

