#p m062x/6-311+g(2df,2p) opt=(calcfc,maxcycle=1000) 

Gaussian input prepared by ASE

0 1
C                 0.5125000000        0.4374000000        0.5795000000
C                -0.7154000000       -0.2787000000        1.0436000000
C                 1.0847000000       -0.0947000000       -0.6947000000
C                -1.7882000000       -0.1546000000       -0.0252000000
O                 2.2252000000        0.6973000000       -0.9704000000
H                -0.5447000000       -1.3705000000        1.1780000000
H                -1.0526000000        0.2076000000        1.9823000000
H                 0.2110000000        1.5057000000        0.3906000000
H                 1.3035000000        0.4695000000        1.3400000000
H                 0.3855000000       -0.1132000000       -1.5370000000
H                 1.4597000000       -1.1403000000       -0.5112000000
H                -2.7299000000       -0.6179000000        0.3801000000
H                -1.9273000000        0.9357000000       -0.1980000000
H                -1.4696000000       -0.7047000000       -0.9256000000
H                 3.0457000000        0.2212000000       -0.6866000000



