%nprocshared=20
%mem=5GB
#p m062x/6-311+g(2df,2p) Opt=(CalcFC,ModRedun)

0 1
O     0.9800936211     -0.0393377784     0.9957845933
O     -1.6572431169     1.3655936338     -1.1315647986
C     -0.1833534622     -0.1113335223     0.1750956401
C     -0.4802905248     1.3000151598     -0.3518363378
C     -1.2880343693     -0.5621133526     1.1195524446
C     -0.0302024482     -1.0989792457     -0.97514398
C     2.2266907381     0.0542064444     0.3494780148
H     -0.5235187022     1.983533348     0.5017164755
H     0.3262586303     1.6303280893     -1.006069136
H     -1.3778972621     0.1367900363     1.9516367087
H     -1.0477435098     -1.5444048163     1.5236408867
H     -2.2440737974     -0.6329780194     0.6007465093
H     0.7264634031     -0.773863149     -1.6891179269
H     -0.9739687343     -1.1794973595     -1.5107592365
H     0.2454015124     -2.0826147199     -0.5935720834
H     2.2662419179     0.8710848404     -0.3759853876
H     2.9624377214     0.2493803726     1.1261651948
H     2.4923256098     -0.8769482611     -0.1569856776
H     -2.4193872269     1.3112382996     -0.5526819036

B -1 -1
B -1 -1
B -1 -1
B -1 -1
B -1 -1
B -1 -1
B -1 -1
B -1 -1
B -1 -1
B -1 -1
B -1 -1
B -1 -1
B -1 -1
B -1 -1
B -1 -1
B -1 -1
B -1 -1
B -1 -1
D 7 1 3 6 S 36 10.0


