%nprocshared=20
%mem=5GB
#p m062x/6-311+g(2df,2p) opt=(calcfc,maxcycle=1000) freq iop(7/33=1)

Gaussian input prepared by ASE

0 1
O                 1.0541000000       -0.3147000000        0.8507000000
O                -1.6720000000        1.1970000000       -0.9312000000
C                -0.1105000000       -0.2284000000        0.1346000000
C                -0.3183000000        1.0623000000       -0.5940000000
C                -1.2474000000       -0.5229000000        1.1089000000
C                -0.1275000000       -1.3396000000       -0.8908000000
C                 2.0839000000        0.4889000000        0.4397000000
H                -0.0284000000        1.9489000000        0.0072000000
H                 0.2112000000        1.0267000000       -1.5799000000
H                -1.5567000000        0.3725000000        1.6646000000
H                -0.8591000000       -1.2473000000        1.8691000000
H                -2.0806000000       -1.0430000000        0.6000000000
H                 0.8520000000       -1.8689000000       -0.9351000000
H                -0.3580000000       -0.9791000000       -1.9128000000
H                -0.8815000000       -2.1206000000       -0.6648000000
H                 2.4493000000        1.1202000000        1.2764000000
H                 2.9435000000       -0.1606000000        0.1352000000
H                 1.8723000000        1.1354000000       -0.4191000000
H                -2.2261000000        1.4733000000       -0.1586000000



