%nprocshared=20
%mem=5GB
#p m062x/6-311+g(2df,2p) opt=(calcfc,verytight,gdiis,maxcycles=900) freq iop(7/33=1,2/16=3) 

Gaussian input prepared by ASE

0 2
O                 0.8932863343        0.7599421448       -0.1668523162
C                -0.4269206521        0.1341036477       -0.4044246434
C                -0.4574698732       -0.5679548345       -1.7466997697
C                 1.8929409993       -0.2820512031       -0.0130465998
C                -0.8673750727       -0.6924933126        0.7340798667
H                -1.1282538530        1.0318483447       -0.4822582007
H                -1.4206393277       -1.1166085129       -1.8902038792
H                 0.3848740198       -1.3044895546       -1.8178840354
H                -0.3433690468        0.1683289150       -2.5827496984
H                 1.6819548884       -0.8977100675        0.9069327347
H                 1.8952091262       -0.9580163131       -0.9165359280
H                 2.8855426370        0.2230991837        0.0882920684
H                -1.8475842004       -1.2154832452        0.6551863039
H                -0.5815424408       -0.3746055399        1.7615971956



