%nprocshared=20
%mem=5GB
#p m062x/6-311+g(2df,2p) Opt=(CalcFC,ModRedun)

Gaussian Input Prepared from Scan Object

0 2
O     0.8671831587     0.7092867103     -0.1522610731
C     -0.4238618248     0.1696714242     -0.3966682869
C     -0.4989546144     -0.6137586125     -1.7037424618
C     1.9034579508     -0.2394546616     -0.0697311493
C     -0.9126459955     -0.623201378     0.7660443214
H     -1.0480511075     1.0654769584     -0.504752778
H     -1.5392705419     -0.8364626214     -1.9389467493
H     0.0372807544     -1.5599275341     -1.6316281355
H     -0.0754389205     -0.0275978206     -2.5181265967
H     1.6546216797     -1.0515268513     0.6207913633
H     2.1397341764     -0.6691006884     -1.0472399207
H     2.7813609221     0.2834121779     0.301855818
H     -1.6354161388     -1.4142285975     0.6328758707
H     -0.6893459603     -0.2846788529     1.7669628764

B 11 4
B 2 5
B 1 2
B 4 1
B 6 2
B 12 4
B 9 3
B 13 5
B 8 3
B 14 5
B 10 4
B 7 3
B 3 2
D 14 2 3 9 S 72 10.0


