%nprocshared=20
%mem=5GB
#p m062x/6-311+g(2df,2p) opt=(calcfc,verytight,gdiis,maxcycles=900) freq iop(7/33=1,2/16=3) 

Gaussian input prepared by ASE

0 2
O                -0.9647979769       -0.7578425721        0.3384772101
C                 0.2450881211       -0.1188995705       -0.2268108404
C                 0.3588533095        1.3157539770        0.2327547371
C                 1.4436724667       -0.9634762400        0.1255063060
C                -2.1359662561       -0.1141185793       -0.1277116177
H                 0.1147216935       -0.1259744828       -1.3487377868
H                 0.6475742170        1.3810560770        1.3112049867
H                 1.1255402141        1.8647418699       -0.3684211425
H                -0.6290965788        1.8324120858        0.1020521137
H                 2.3657150840       -0.5566501317       -0.3573656573
H                 1.3055209572       -2.0157467349       -0.2264330611
H                 1.6161790078       -0.9882385188        1.2301324254
H                -1.9833914559        0.9956331966       -0.2532621878
H                -2.9919226785       -0.3881615693        0.5400719292



