%nprocshared=20
%mem=5GB
#p m062x/6-311+g(2df,2p) Opt=(CalcFC,ModRedun)

Gaussian Input Prepared from Scan Object

0 2
O     0.5585337952     -0.5948040365     0.9732042802
C     -0.1430956053     -0.1261754321     -0.1772165053
C     -1.4891925113     0.3700445689     0.3064316015
C     0.6595359641     0.9574074268     -0.8775156129
C     1.636027281     -1.3649825452     0.7285431653
H     -0.2824602318     -0.9779257149     -0.8536589586
H     -2.0334954986     -0.4256790779     0.8115217911
H     -2.0844359339     0.7260462109     -0.5334215678
H     -1.3488543177     1.1934427279     1.0068459313
H     0.8081311081     1.7996650987     -0.2011449451
H     0.1291928507     1.3088624314     -1.7621541316
H     1.6356828362     0.5822725826     -1.1815701442
H     1.6555198887     -1.9363527295     -0.1921975163
H     2.1343249427     -1.7209151871     1.6153401285

B 14 5
B 7 3
B 13 5
B 8 3
B 2 1
B 9 3
B 3 2
B 10 4
B 4 2
B 6 2
B 11 4
B 1 5
B 12 4
D 5 1 2 3 S 72 10.0


