%nprocshared=20
%mem=5GB
#p m062x/6-311+g(2df,2p) opt=(calcfc,verytight,gdiis,maxcycles=900) freq iop(7/33=1,2/16=3) 

Gaussian input prepared by ASE

0 2
O                 2.0764023956        1.0867656329       -1.0496699002
C                 1.5222513182        1.3151010373        1.3639764431
C                 1.4020389693        0.4755623729        0.0933597953
C                 1.6607870717        3.7600802428        0.5824067496
C                 0.9450233623        2.6674759236        1.2492180450
H                 2.6104213245        1.3803748452        1.6395168028
H                 1.0077969309        0.7478890686        2.1874558863
H                 1.8782573004       -0.5284767338        0.2409961811
H                 0.3142822065        0.3103462228       -0.1636623789
H                 1.1469729846        4.7433798025        0.7397330107
H                 1.7218169164        3.5947932478       -0.5445070862
H                 2.7250055947        3.8453195739        0.9373470795
H                -0.1606348040        2.7612710484        1.3459688390
H                 1.8401100600        2.0379072085       -0.9873686607



