%nprocshared=20
%mem=5GB
#p m062x/6-311+g(2df,2p) opt=(calcfc,verytight,gdiis,maxcycles=900) freq iop(7/33=1,2/16=3) 

Gaussian input prepared by ASE

0 2
O                -0.9720388343       -1.0370886036       -0.8544940342
C                -1.4360337864        1.2055259731        0.1212362546
C                -1.7344615223       -0.2913055633        0.1442203331
C                -1.0690430954        1.6491601454       -2.3947122734
C                -1.7858843230        1.8877576188       -1.1384763640
H                -1.9989338513        1.6756941801        0.9710852967
H                -0.3386154484        1.3373338971        0.3494948803
H                -2.8359005972       -0.4741066830       -0.0248257251
H                -1.4591064027       -0.7229931315        1.1420148987
H                -1.2929546929        0.6167613473       -2.8255466193
H                -1.3538365275        2.3997711132       -3.1778083850
H                 0.0477571496        1.6778479143       -2.2551621055
H                -2.7709630543        2.4020404290       -1.1914826036
H                -1.0180262302       -0.4767268412       -1.6586356034



