%nprocshared=20
%mem=5GB
#p m062x/6-311+g(2df,2p) Opt=(CalcFC,ModRedun)

Gaussian Input Prepared from Scan Object

0 2
O     -1.6457048576     0.6137332466     -0.9864016248
C     -0.9596477608     0.7535423109     1.3543717445
C     -1.6091302086     -0.0777541702     0.2430892111
C     -2.9856597887     1.9121850012     2.4658767208
C     -1.734217901     1.9906476089     1.6647862966
H     0.0559585473     1.0011683861     1.0449069689
H     -0.889571328     0.1189898309     2.247127927
H     -1.029366609     -0.9826001564     0.0663629359
H     -2.6172366202     -0.3817917991     0.5465627747
H     -2.7640417176     1.7881516697     3.5340141612
H     -3.594516839     2.8092459237     2.3658920435
H     -3.5946796641     1.0523039685     2.177545388
H     -1.2890121954     2.9582860584     1.4835108925
H     -2.067349976     1.4646920298     -0.8372771528

B 3 2
B 7 2
B 12 4
B 13 5
B 2 5
B 9 3
B 10 4
B 11 4
B 5 4
B 14 1
B 1 3
B 6 2
B 8 3
D 10 4 5 13 S 72 10.0


