%nprocshared=20
%mem=5GB
#p m062x/6-311+g(2df,2p) Opt=(CalcFC,ModRedun)

Gaussian Input Prepared from Scan Object

0 2
O     -1.2866533511     -1.3867562627     -0.2667697576
C     -1.2758234136     1.0468036583     -0.1380770089
C     -1.7701483869     -0.2697743114     0.4494473357
C     -1.0377880458     2.100110327     -2.4981969359
C     -1.7902572647     1.2738030009     -1.5182142991
H     -1.588294375     1.86255072     0.5301659771
H     -0.1825230124     1.0484669204     -0.140596334
H     -2.8665357619     -0.2709512522     0.473726245
H     -1.4154911926     -0.3885561636     1.4720880754
H     -1.4374609097     2.0026113313     -3.5063226969
H     -1.0735430326     3.1664315953     -2.2382994602
H     0.0181715203     1.8222052102     -2.5162723858
H     -2.843678303     1.0866906817     -1.6957569455
H     -1.4680156873     -1.2439636594     -1.2000138594

B 13 5
B 11 4
B 3 2
B 1 3
B 12 4
B 7 2
B 5 4
B 14 1
B 8 3
B 6 2
B 2 5
B 9 3
B 10 4
D 14 2 3 8 S 72 10.0


