%nprocshared=20
%mem=5GB
#p m062x/6-311+g(2df,2p) opt=(calcfc,verytight,gdiis,maxcycles=900) freq iop(7/33=1,2/16=3) 

Gaussian input prepared by ASE

0 2
O                 1.7623410000       -0.7420870000        0.2871850000
C                -1.0701110000        0.2891450000        0.5895240000
C                 0.1062070000        1.0500210000       -0.0373850000
C                -1.7397890000       -0.6725900000       -0.3853370000
C                 1.1851540000        0.1631480000       -0.5548000000
H                -0.7369430000       -0.2559580000        1.4792730000
H                -1.7956320000        1.0159960000        0.9572060000
H                 0.5091570000        1.7537580000        0.7056380000
H                -0.2628900000        1.6522800000       -0.8696850000
H                -2.5940180000       -1.1702520000        0.0717500000
H                -1.0402660000       -1.4359790000       -0.7262230000
H                -2.0926960000       -0.1370180000       -1.2677050000
H                 1.8749270000        0.5030800000       -1.3127860000
H                 1.1508650000       -0.9675560000        0.9930420000



