%nprocshared=20
%mem=5GB
#p m062x/6-311+g(2df,2p) opt=(calcfc,verytight,gdiis,maxcycles=900) freq iop(7/33=1,2/16=3) 

Gaussian input prepared by ASE

0 1
O                -2.7976547813       -2.6683025942        0.2305885580
O                -4.4157899364       -0.5768501787       -2.9006424309
O                -3.3764247995       -0.0120336515       -0.9231491310
N                -4.2765548599       -2.3556516561        0.3852521394
C                -4.7304476637       -2.0385770768       -0.9640622369
C                -4.0860601725       -0.7988652490       -1.5102893716
H                -4.5624889999       -2.8976549378       -1.6762013425
H                -5.8437625526       -1.8820035401       -0.9226960062
H                -4.6322868592       -3.3260627313        0.5410213256
H                -2.3922271387       -1.8617384548        0.6181164607
H                -3.9464462777        0.2515747827       -3.1397673359



