%nprocshared=20
%mem=5GB
#p m062x/6-311+g(2df,2p) Opt=(CalcFC,ModRedun)

Gaussian Input Prepared from Scan Object

0 2
O     -1.1506167636     0.2021038382     -0.8598891234
O     -1.0602871411     -1.501471552     0.6067591513
C     1.5976541279     -2.227426615     -0.3550445484
C     -2.4431434544     0.5101056027     -0.3519677653
C     0.7606496081     -1.1121169391     -0.844028218
C     -0.5472680361     -0.856238358     -0.2802362453
H     2.5546479663     -1.8594860276     0.024263435
H     1.0862856329     -2.7679363789     0.4374135731
H     1.8339368385     -2.9219866828     -1.1655064035
H     -2.7875881895     1.3723084765     -0.9132971458
H     -2.389599301     0.7418708015     0.7103792545
H     -3.1182446911     -0.332311011     -0.4924520527
H     1.102903312     -0.4598198134     -1.6338833357

B 1 6
B 2 6
B 9 3
B 12 4
B 7 3
B 5 3
B 8 3
B 13 5
B 4 1
B 10 4
B 11 4
B 6 5
D 4 1 6 5 S 36 10.0


