%nprocshared=20
%mem=5GB
#p m062x/6-311+g(2df,2p) opt=(calcfc,verytight,gdiis,maxcycles=900) freq iop(7/33=1,2/16=3) 

Gaussian input prepared by ASE

0 2
O                -1.2083223542        0.2150772111       -1.0219845726
O                -0.9906287692       -1.2846524316        0.7606715332
C                 1.5973501362       -2.2534244366       -0.3751246377
C                -2.4465022887        0.5494353991       -0.3210268505
C                 0.7123008814       -1.2162889171       -0.9149233998
C                -0.5058843559       -0.8207934902       -0.3034203038
H                 2.1316018081       -1.8905649305        0.5510994014
H                 1.0208734023       -3.1641887577       -0.0571342651
H                 2.3746862404       -2.5598163099       -1.1198532729
H                -2.9586009621        1.3395552416       -0.9246934994
H                -2.2106640525        0.9415993633        0.7044374300
H                -3.1010746190       -0.3595724071       -0.2413961911
H                 1.0241948422       -0.7087701935       -1.8541407957



