%nprocshared=20
%mem=5GB
#p m062x/6-311+g(2df,2p) opt=(calcfc,verytight,gdiis,maxcycles=900) freq iop(7/33=1,2/16=3) 

Gaussian input prepared by ASE

0 2
O                 1.4297220032       -0.0995918993        0.7851110707
O                 0.7895858200       -0.4039746519       -1.4462858242
C                -1.7705790083       -1.5969001542       -0.5711444109
C                 2.6164853613        0.4753838034        0.1542417581
C                -0.6815447835       -1.1230834106        0.2863068588
C                 0.5073562569       -0.5465906131       -0.2276877709
H                -2.2218129924       -2.5430635156       -0.1679465959
H                -1.4226970039       -1.7643846619       -1.6222126932
H                -2.6093775533       -0.8389522947       -0.6069692008
H                 3.2161164864        0.9579402989        0.9658337774
H                 2.3132266776        1.2375872067       -0.6117767667
H                 3.2187989397       -0.3381909965       -0.3346517478
H                -0.8159745654       -1.2018847216        1.3881017003



