%nprocshared=20
%mem=5GB
#p m062x/6-311+g(2df,2p) Opt=(CalcFC,ModRedun)

Gaussian Input Prepared from Scan Object

0 2
O     2.80386246     -2.6356157578     -1.6998033198
O     0.1954293896     -1.9575015739     0.0412738375
O     0.827434248     -1.2263009941     2.6410803164
O     2.164228617     -1.6614675841     2.4314056473
C     0.9603693944     -1.286379401     -0.7968425155
C     2.3568368268     -2.1221355509     -0.7394500982
C     1.3684897382     0.1258676548     -0.361498351
H     0.6492604511     -1.344934057     -1.8460054877
H     2.2417932566     -2.3771991365     3.0711902531
H     2.7887882182     -2.112084696     0.2723941881
H     1.8047153505     0.1093468394     0.6364266591
H     2.0769945051     0.5504621125     -1.0718619591
H     0.476441124     0.7502226909     -0.3416237142
H     0.4116854681     -1.5225110762     1.809177963

B 10 6
B 5 6
B 8 5
B 7 5
B 11 7
B 2 5
B 12 7
B 4 2
B 1 3
B 13 7
B 14 3
B 9 6
B 6 1
D 6 5 7 13 S 36 10.0


