%nprocshared=20
%mem=5GB
#p m062x/6-311+g(2df,2p) opt=(calcfc,verytight,gdiis,maxcycles=900) freq iop(7/33=1,2/16=3) 

Gaussian input prepared by ASE

0 2
O                -1.6353109050        0.0688661823       -2.7026130444
O                 1.6191774310        1.8214231470       -2.1369891576
O                -2.7710704844        0.5172771934       -3.5219845268
O                 1.1123770359        3.0446904091       -1.9307487487
C                 0.5341582451        0.8132629302       -1.9194732003
C                -0.6704790934        1.1736921336       -2.7608593833
C                 1.1036914963       -0.5542702589       -2.1878698333
H                 0.2639353723        0.8932949207       -0.8280641809
H                -0.3759934536        1.3455182407       -3.8347316735
H                -1.1632258542        2.1084485491       -2.3754194016
H                 2.0081549488       -0.7333563372       -1.5532417255
H                 0.3495817452       -1.3458759127       -1.9522024213
H                 1.4035196929       -0.6684075339       -3.2601899828
H                -2.7876109769       -0.2109829844       -4.1792324584



