%nprocshared=20
%mem=5GB
#p m062x/6-311+g(2df,2p) opt=(calcfc,verytight,gdiis,maxcycles=900) freq iop(7/33=1,2/16=3) 

Gaussian input prepared by ASE

0 2
O                 0.6110605351        1.3630847684       -1.8057295228
C                 0.7015175062       -0.4479115248        0.5420545970
C                -0.3389021072       -0.4696413628       -0.5377623560
C                 1.6921695763        0.6856347995        0.4414861285
C                -0.5456088912        0.8448078694       -1.2490203129
H                 0.1981227180       -0.3957733773        1.5398560756
H                 1.2550160736       -1.4208150454        0.5225852496
H                -0.0631350354       -1.2388356299       -1.3023642339
H                -1.3215984630       -0.7984674500       -0.1146691076
H                 1.6140175810        1.1166763291       -0.5882780024
H                 2.7379263470        0.3552379152        0.6118546571
H                 1.4579606086        1.4916802196        1.1478749591
H                -1.0453750755        1.5918675677       -0.5829848572
H                -1.2501805644        0.6457681521       -2.0878098981



