#p m062x/6-311+g(2df,2p) opt=(calcfc,maxcycle=1000) freq iop(7/33=1) 

Gaussian input prepared by ASE

0 1
O                -3.0867000000        0.3437000000        1.6865000000
O                -2.1425000000       -1.4331000000        0.7203000000
C                 0.4534000000       -0.3715000000       -0.7368000000
C                -0.4148000000        0.8503000000       -0.7023000000
C                 1.5155000000       -0.3561000000        0.3359000000
C                -1.8657000000        0.5718000000       -0.4441000000
C                 2.6838000000        0.5303000000       -0.0036000000
C                -2.1251000000       -0.1666000000        0.8064000000
H                 1.1070000000       -0.0878000000        1.3204000000
H                 1.9041000000       -1.3987000000        0.4266000000
H                 0.9989000000       -0.4520000000       -1.7114000000
H                -0.1159000000       -1.3244000000       -0.6498000000
H                -0.3721000000        1.3308000000       -1.7129000000
H                -0.0377000000        1.6364000000       -0.0015000000
H                -2.3699000000        1.5719000000       -0.4190000000
H                -2.3201000000        0.0523000000       -1.3212000000
H                 2.4773000000        1.6056000000        0.1510000000
H                 3.5150000000        0.2808000000        0.6997000000
H                 3.0706000000        0.3063000000       -1.0168000000
H                -2.8753000000        0.7560000000        2.5725000000



