#p m062x/6-311+g(2df,2p) opt=(calcfc,verytight,gdiis,maxcycles=900) freq iop(7/33=1,2/16=3) 

Gaussian input prepared by ASE

0 1
O                -1.6458000000       -0.8645000000        0.7635000000
O                 1.9349000000       -0.4537000000        0.2961000000
O                 1.1789000000        1.6015000000       -0.2916000000
N                -1.3249000000        0.2008000000        0.0202000000
C                -0.2604000000       -0.1232000000       -0.9186000000
C                 1.0350000000        0.3471000000       -0.3622000000
H                -0.1956000000       -1.2201000000       -1.0465000000
H                -0.5290000000        0.4037000000       -1.8654000000
H                -1.1211000000        1.0625000000        0.5496000000
H                -1.5264000000       -0.7553000000        1.7285000000
H                 2.4544000000       -0.1987000000        1.1264000000



