%nprocshared=20
%mem=5GB
#p m062x/6-311+g(2df,2p) Opt=(CalcFC,ModRedun)

Gaussian Input Prepared from Scan Object

0 1
O     1.876994     0.444588     -0.592156
O     -0.731255     1.204511     0.353487
O     -2.085631     -0.426618     -0.346414
N     1.407792     -0.322692     0.502829
C     0.191991     -0.990505     0.094619
C     -0.999892     -0.063126     0.003781
H     0.274046     -1.48555     -0.878122
H     -0.054511     -1.748246     0.839957
H     2.133041     -1.014907     0.649301
H     1.716532     1.350075     -0.312676
H     -1.557106     1.699396     0.272001

B 6 5
B 11 2
B 3 6
B 5 4
B 5 8
B 1 4
B 4 9
B 7 5
B 6 2
B 1 10
D 7 5 6 3 S 72 10.0


