#p m062x/6-311+g(2df,2p) opt=(calcfc,maxcycle=1000) freq iop(7/33=1) 

Gaussian input prepared by ASE

0 1
C                 0.7532000000       -0.0154000000        0.0654000000
C                -0.7642000000        0.0726000000       -0.0465000000
H                 1.0701000000       -0.2628000000        1.1060000000
H                 1.2576000000        0.8868000000       -0.3033000000
H                 1.0853000000       -0.8538000000       -0.5976000000
H                -1.0205000000       -0.1223000000       -1.1043000000
H                -1.1647000000        1.0234000000        0.3203000000
H                -1.2168000000       -0.7286000000        0.5600000000



