%nprocshared=20
%mem=5GB
#p m062x/6-311+g(2df,2p) Opt=(CalcFC,ModRedun)

Gaussian Input Prepared from Scan Object

0 2
O     0.3676183033     0.1285659793     0.7187077572
C     -1.7735843779     -0.2115176182     -0.2862621168
C     1.7730996494     0.07553933     0.6135951929
C     -0.2971924762     -0.2271529334     -0.4073610919
H     -2.1365071021     -0.9680578132     0.419850764
H     -2.1175646574     0.7589788534     0.0741251794
H     -2.2337617431     -0.4049960326     -1.2532222417
H     2.1270722685     0.7683555679     -0.1528360781
H     2.1809784278     0.3589421951     1.5794653862
H     2.1026816978     -0.9362866834     0.3625530955
H     0.2125182591     -0.9271840443     -1.0629762036

B 10 3
B 1 4
B 8 3
B 6 2
B 5 2
B 4 2
B 3 1
B 7 2
B 9 3
B 11 4
D 7 2 4 11 S 36 10.0


