%nprocshared=20
%mem=5GB
#p m062x/6-311+g(2df,2p) opt=(calcfc,verytight,gdiis,maxcycles=900) freq iop(7/33=1,2/16=3) 

Gaussian input prepared by ASE

0 1
O                -1.1432410000       -0.7007250000       -0.0032810000
O                -0.1016620000        1.2776430000        0.0068050000
C                 1.2110810000       -0.7437980000        0.0096560000
C                 2.4604670000        0.1198940000       -0.0100730000
C                -2.3879980000       -0.0065610000       -0.0047670000
C                -0.0512020000        0.0787910000        0.0035610000
H                 1.1681290000       -1.4158640000       -0.8490230000
H                 1.1758780000       -1.3857440000        0.8917140000
H                 2.4804170000        0.7486280000       -0.8980920000
H                 3.3541140000       -0.5011670000       -0.0032040000
H                 2.4872780000        0.7785640000        0.8556690000
H                -2.4747850000        0.6174800000        0.8825490000
H                -3.1570560000       -0.7715800000       -0.0103390000
H                -2.4688410000        0.6243900000       -0.8877290000



