%nprocshared=20
%mem=5GB
#p m062x/6-311+g(2df,2p) opt=(calcfc,verytight,gdiis,maxcycles=900) freq iop(7/33=1,2/16=3) 

Gaussian input prepared by ASE

0 2
O                -1.5191575237        0.6176443569       -0.5729330120
O                -0.7201271241       -1.5294117492       -0.1939548817
C                 1.3376471569       -1.1671111535       -2.3710852739
C                -2.4717183528        0.3341678936        0.4494060959
C                 0.3334501100       -0.1553447329       -1.9067997033
C                -0.6516629047       -0.4499489008       -0.8247852152
H                 2.0694138153       -1.3974249522       -1.5551410529
H                 0.8502142434       -2.1183822576       -2.6399476387
H                 1.9083380125       -0.7890634951       -3.2567001876
H                -3.4480634301        0.7352774299        0.1219740419
H                -2.1697664934        0.8419382935        1.3986297817
H                -2.5488612830       -0.7675560400        0.6240551226
H                 0.3821617661        0.8703798720       -2.3379899855



