%nprocshared=20
%mem=5GB
#p m062x/6-311+g(2df,2p) opt=(calcfc,verytight,gdiis,maxcycles=900) freq iop(7/33=1,2/16=3) 

Gaussian input prepared by ASE

0 2
O                -1.2238923683        0.4265857869        0.5693463956
O                -0.4808284988       -0.7895032316       -1.2580080143
C                 2.3998629713       -0.3463172072       -0.3918872998
C                -2.5243846510        0.0584279212        0.1153773455
C                 1.1591771279        0.2065399162        0.2426926629
C                -0.2173918534       -0.1067773972       -0.2419564069
H                 2.2227778974       -1.3830303038       -0.7768011758
H                 2.7243640854        0.2693213041       -1.2465701535
H                 3.2481668097       -0.3678888948        0.3380696305
H                -3.2262258540        0.2193702125        0.9537488769
H                -2.5507188355       -1.0157021652       -0.1937866536
H                -2.8303480293        0.7034524640       -0.7451914724
H                 1.2755266286        0.8886334212        1.1154011446



