%nprocshared=20
%mem=5GB
#p m062x/6-311+g(2df,2p) opt=(calcfc,verytight,gdiis,maxcycles=900) freq iop(7/33=1,2/16=3) 

Gaussian input prepared by ASE

0 2
O                -0.6578980000       -0.6052110000       -0.3143520000
C                 0.4287070000        0.0427480000        0.3205910000
C                 1.6743130000       -0.7630120000       -0.0337670000
C                -1.9135540000       -0.1132470000        0.0819210000
C                 0.5501460000        1.4640030000       -0.1108680000
H                 0.2787230000        0.0052320000        1.4090550000
H                 2.5543090000       -0.3363980000        0.4449760000
H                 1.8207490000       -0.7496240000       -1.1132980000
H                 1.5536430000       -1.7954610000        0.2916710000
H                -2.0503520000       -0.2136100000        1.1645180000
H                -2.0401550000        0.9394350000       -0.1878100000
H                -2.6689610000       -0.7058770000       -0.4280950000
H                 0.9815530000        2.2091860000        0.5397100000
H                 0.3960060000        1.7058500000       -1.1531740000



