%nprocshared=20
%mem=5GB
#p m062x/6-311+g(2df,2p) Opt=(CalcFC,ModRedun)

Gaussian Input Prepared from Scan Object

0 2
O     -0.693520514     0.6855909532     0.1493263832
C     1.464606314     -0.5230191078     0.042364266
C     -1.394058412     -0.5223886054     -0.0520326525
C     0.6249352033     0.6863186048     -0.1789963213
H     1.4711330115     -0.8363830925     1.0950738821
H     2.4909102733     -0.3014959098     -0.2427026126
H     1.1333303514     -1.3793363626     -0.547932569
H     -2.4373286903     -0.319275182     0.1715429658
H     -1.3019301679     -0.854143962     -1.0892755006
H     -1.0323751768     -1.3112162742     0.6105821731
H     1.0515318075     1.6716499383     -0.0599180143

B 9 3
B 11 4
B 10 3
B 1 4
B 8 3
B 6 2
B 5 2
B 4 2
B 3 1
B 7 2
D 7 2 4 11 S 36 10.0


