%nprocshared=20
%mem=5GB
#p m062x/6-311+g(2df,2p) opt=(calcfc,verytight,gdiis,maxcycles=900) freq iop(7/33=1,2/16=3) 

Gaussian input prepared by ASE

0 2
O                -0.4919460000       -0.4708470000        0.0239060000
C                 1.8691730000       -0.0975250000        0.0095370000
C                -1.7978820000        0.0609510000       -0.0021850000
C                 0.4962770000        0.4490750000       -0.0920540000
H                 2.0794660000       -0.5002020000        1.0077030000
H                 2.6013780000        0.6793700000       -0.2014290000
H                 2.0108640000       -0.9108220000       -0.7036950000
H                -2.4880760000       -0.7694230000        0.1147030000
H                -1.9410440000        0.7708170000        0.8168800000
H                -1.9880240000        0.5658840000       -0.9518120000
H                 0.2555950000        1.4561450000        0.2346120000



