%nprocshared=20
%mem=5GB
#p m062x/6-311+g(2df,2p) opt=(calcfc,verytight,gdiis,maxcycles=900) freq iop(7/33=1,2/16=3) 

Gaussian input prepared by ASE

0 2
O                -0.8039493110       -0.9834466910       -0.7680985591
C                 1.3021694648        0.2776955545       -0.2887269872
C                -1.4602467969        0.1732751893       -0.4044206772
C                 0.5280366552       -1.0311435026       -0.3562429536
H                 0.6582998193        1.0963201601        0.0579440598
H                 2.1657623266        0.1925601666        0.4164861116
H                 1.7079959466        0.5538964546       -1.2801392069
H                -2.5590560206        0.0181493624       -0.5502224875
H                -1.2789403098        0.4337259398        0.6672562818
H                -1.1421296587        1.0406904490       -1.0369227273
H                 1.0409441182       -1.8723984978       -0.8896588396



