%nprocshared=20
%mem=5GB
#p m062x/6-311+g(2df,2p) Opt=(CalcFC,ModRedun)

Gaussian Input Prepared from Scan Object

0 2
O     0.3801734937     0.3008607045     1.3388581426
O     0.2191969934     -1.9306286427     1.3023062794
C     1.6077943694     -0.8204703754     -0.3366414665
C     -0.5407186885     0.3191118912     2.4274037631
C     0.6718661501     -0.9146282515     0.8557759615
C     0.8738790746     -0.3088393653     -1.5278596133
H     2.0011171328     -1.8191497288     -0.5087513827
H     2.4241915969     -0.1478694139     -0.0697178267
H     -0.6719504108     1.3633041526     2.690059327
H     -1.4883947514     -0.1234197594     2.1269933441
H     -0.1410682116     -0.2411675296     3.2702379624
H     0.6803759138     0.7469858523     -1.6306493875
H     0.3601927094     -0.9950242287     -2.1822136118

B 5 3
B 4 1
B 9 4
B 12 6
B 13 6
B 3 6
B 7 3
B 1 5
B 10 4
B 8 3
B 11 4
B 2 5
D 13 1 4 11 S 72 10.0


