%nprocshared=20
%mem=5GB
#p m062x/6-311+g(2df,2p) opt=(calcfc,verytight,gdiis,maxcycles=900) freq iop(7/33=1,2/16=3) 

Gaussian input prepared by ASE

0 1
C                 0.6810848519       -0.5876158912       -0.4769432027
C                -0.7142854331       -0.0730262861       -0.7015705524
C                 1.5551089030        0.3340856263        0.3220460092
C                -1.5152837826        0.1367253266        0.5679636319
H                 0.6254085699       -1.5860170647        0.0263047067
H                 1.1418695126       -0.7809580218       -1.4554899502
H                -1.2614376024       -0.7920820149       -1.3625323158
H                -0.6712242156        0.8764335140       -1.2487160079
H                 1.0516137109        1.3161687610        0.5108837126
H                 2.5161622152        0.5421203450       -0.2084540351
H                 1.8084686689       -0.1081087162        1.3153836418
H                -1.2358683111        1.0880728153        1.0614705115
H                -1.3540290645       -0.6872389526        1.2949034867
H                -2.6091504308        0.1743955013        0.3345713145



