%nprocshared=20
%mem=5GB
#p m062x/6-311+g(2df,2p) Opt=(CalcFC,ModRedun)

Gaussian Input Prepared from Scan Object

0 1
C     0.6914750209     -0.5437655614     -0.5399582452
C     -0.7572741703     -0.0802913182     -0.6872665141
C     1.5534514617     0.4104063103     0.2811197215
C     -1.4990722653     0.0245801833     0.6417763751
H     0.7040245016     -1.5352039902     -0.0787702106
H     1.1298253339     -0.6603062225     -1.5330871326
H     -1.2876970427     -0.7751166825     -1.3414125279
H     -0.772196432     0.8902355371     -1.1909102696
H     1.5146052705     1.4195298297     -0.1334366133
H     2.5954405186     0.0926484343     0.2899345284
H     1.2177972656     0.4639139746     1.3163975056
H     -1.0698393082     0.7957625744     1.2808097677
H     -1.4530118509     -0.9210276803     1.1852838522
H     -2.5490907111     0.2715895533     0.4893407139

B 8 2
B 9 3
B 12 4
B 10 3
B 13 4
B 11 3
B 1 3
B 14 4
B 5 1
B 6 1
B 2 1
B 7 2
B 4 2
D 8 2 4 12 S 36 10.0


