%nprocshared=20
%mem=5GB
#p m062x/6-311+g(2df,2p) opt=(calcfc,verytight,gdiis,maxcycles=900) freq iop(7/33=1,2/16=3) 

Gaussian input prepared by ASE

0 1
C                 0.6775360531       -0.5880150036       -0.4723945211
C                -0.7178715321       -0.0737803410       -0.6976022541
C                 1.5527705580        0.3379120496        0.3203596296
C                -1.5210380856        0.1384384258        0.5701508063
H                 0.6221591349       -1.5836942215        0.0362502490
H                 1.1386993967       -0.7797547598       -1.4510781556
H                -1.2687609478       -0.7931617283       -1.3550962551
H                -0.6741220556        0.8734890843       -1.2484769669
H                 1.8125892168       -0.1001979036        1.3174595762
H                 1.0512111214        1.3194127652        0.5031892956
H                 2.5110329182        0.5455573813       -0.2135535893
H                -1.2426321015        1.0890539837        1.0656346700
H                -1.3621301813       -0.6868664696        1.2960859808
H                -2.6139795058        0.1795289326        0.3330308319



