%nprocshared=20
%mem=5GB
#p m062x/6-311+g(2df,2p) opt=(calcfc,verytight,gdiis,maxcycles=900) freq iop(7/33=1,2/16=3) 

Gaussian input prepared by ASE

0 2
O                 0.8015692937        0.0598156265        0.6348302357
C                -0.1716396938        0.1384871961       -0.3505006990
C                -1.0191552848       -1.1258781596       -0.4103383985
C                 0.4169408317        0.4835720860       -1.6895677077
C                 1.7548830140       -0.9108886812        0.3840327125
H                -0.8399868209        0.9776120370       -0.0353052215
H                -1.3433370950       -1.4265394145        0.6113396446
H                -1.9232423096       -0.9586807926       -1.0250162507
H                -0.4494725780       -1.9732032202       -0.8539786867
H                 1.1142818214       -0.3283084997       -2.0195094882
H                 0.9895635118        1.4220524443       -1.6347351150
H                -0.3842503161        0.5975370238       -2.4643887371
H                 1.9467358056       -1.0430261658       -0.6919271295
H                 2.6725172310       -0.6888433228        0.9847603983



