%nprocshared=20
%mem=5GB
#p m062x/6-311+g(2df,2p) Opt=(CalcFC,ModRedun)

Gaussian Input Prepared from Scan Object

0 2
O     -2.3151317598     -0.332638403     -0.0732538097
C     1.3314402463     0.5762953705     0.2472161946
C     -0.1086587512     0.7484492792     -0.2364211645
C     1.9464784925     -0.749500882     -0.1875895007
C     -1.031349667     -0.2433210489     0.3791703205
H     1.9336297757     1.4036956269     -0.1302677325
H     1.3495441652     0.6540538746     1.3371332999
H     -0.449215223     1.7718122802     -0.0217630759
H     -0.1360448995     0.6419174383     -1.3287584926
H     1.9464892088     -0.8342915049     -1.2755676307
H     2.9764710015     -0.8392445912     0.1554177694
H     1.3806619282     -1.5923659608     0.2082097397
H     -0.9546980573     -0.4838557031     1.4311913503
H     -2.3564404606     -0.0426867758     -0.9879922678

B 9 3
B 13 5
B 2 4
B 3 2
B 12 4
B 7 2
B 11 4
B 8 3
B 6 2
B 1 5
B 5 3
B 10 4
B 14 1
D 4 2 3 9 S 36 10.0


