%nprocshared=20
%mem=5GB
#p m062x/6-311+g(2df,2p) opt=(calcfc,verytight,gdiis,maxcycles=900) freq iop(7/33=1,2/16=3) 

Gaussian input prepared by ASE

0 2
O                 4.7621367022       13.2787730575        8.9927730372
C                 7.6931237484       11.9632464278        7.2756344288
C                 7.0716325407       12.9230021068        8.2828696920
C                 8.1143800322       10.6474068417        7.8671524987
C                 5.6821841569       13.3831532573        7.9661914209
H                 6.9867703576       11.7800355529        6.4557422027
H                 8.5694287138       12.4542555701        6.8045019954
H                 7.7378853854       13.8098156927        8.3796603978
H                 7.0481365038       12.4421067626        9.2758995678
H                 7.5551484474        9.7965372033        7.4102779611
H                 9.1936177776       10.4614581102        7.7072824011
H                 7.9275145833       10.6122874204        8.9666070090
H                 5.5756364223       14.3452665748        7.4519106857
H                 5.0621659317       12.5249517777        9.5767664871



