%nprocshared=20
%mem=5GB
#p m062x/6-311+g(2df,2p) opt=(calcfc,verytight,gdiis,maxcycles=900) freq iop(7/33=1,2/16=3) 

Gaussian input prepared by ASE

0 2
O                 8.0900704416       12.7771651422       10.4482147006
C                 6.2696460236        9.8423125136        9.5072738231
C                 7.4627655135       10.7554678206        9.2532690439
C                 5.0901641465       10.5568207957       10.1048394819
C                 7.2203588312       12.2055110016        9.5382335919
H                 5.9742174514        9.3610362119        8.5660938828
H                 6.5842001222        9.0133395091       10.1742263079
H                 7.7667199696       10.6450675268        8.1878474871
H                 8.3184850374       10.4089588674        9.8579147020
H                 5.3562589958       11.6320198876       10.2411989111
H                 4.1997802457       10.4986872310        9.4500673934
H                 4.8113835059       10.1382805022       11.1008603989
H                 7.0247393251       12.8486813561        8.6724599298
H                 7.9291463731       13.7636338202       10.4310274498



