%nprocshared=20
%mem=5GB
#p m062x/6-311+g(2df,2p) opt=(calcfc,verytight,gdiis,maxcycles=900) freq iop(7/33=1,2/16=3) 

Gaussian input prepared by ASE

0 2
O                 4.8381323782       12.7215260531        8.8991582446
C                 5.3465625158       13.8272745527        5.5135829915
C                 5.5226615612       12.7378121739        6.5642808601
C                 4.0772142596       13.7066677045        4.7179742356
C                 5.7256833336       13.2242177141        7.9659879731
H                 5.3832148708       14.8131311996        5.9946940772
H                 6.2128062177       13.8012364026        4.8208276207
H                 6.3987262491       12.1153552755        6.2731490990
H                 4.6438004414       12.0706783897        6.5429178979
H                 4.2938674981       13.6034756339        3.6280814790
H                 3.4853960103       12.8238993051        5.0267793566
H                 3.4282873731       14.6055133571        4.8441593330
H                 6.7571944910       13.2445143697        8.3362202082
H                 5.1952924474       12.9666685729        9.8000767980



