%nprocshared=20
%mem=5GB
#p m062x/6-311+g(2df,2p) opt=(calcfc,verytight,gdiis,maxcycles=900) freq iop(7/33=1,2/16=3) 

Gaussian input prepared by ASE

0 2
O                 3.4178092918        8.1723962208        3.1553160525
C                 5.8509043255        6.1435265280        1.4549942084
C                 4.8165161220        6.2704413503        2.5666770914
C                 5.2863182964        5.6568035664        0.1499548701
C                 4.6915175960        7.6351000487        3.1705587234
H                 6.3458470900        7.1106727343        1.2988389160
H                 6.6510074152        5.4505889330        1.7876181332
H                 5.0851534728        5.5496640125        3.3716700312
H                 3.8301637597        5.9598646893        2.1812268548
H                 4.1937411376        5.4436313298        0.2292404279
H                 5.4222494870        6.4034925661       -0.6555684003
H                 5.7879357000        4.7164846069       -0.1803972524
H                 5.2049606894        7.7968295394        4.1253984438
H                 3.4355313772        8.9794788395        3.7449057270



