%nprocshared=20
%mem=5GB
#p m062x/6-311+g(2df,2p) opt=(calcfc,verytight,gdiis,maxcycles=900) freq iop(7/33=1,2/16=3) 

Gaussian input prepared by ASE

0 2
O                 0.6861860070       -0.1266382868       -0.7753918240
C                -0.4399060004        0.1585930285        0.1394899936
C                -1.7349450290       -0.1558637449       -0.5739829600
C                 1.9418904842        0.0644486169       -0.0716081209
C                -0.3721111068        1.5084270667        0.7237927466
H                -0.3467172288       -0.6025072028        0.9979396467
H                -2.6011285662       -0.0705049294        0.1290093001
H                -1.9089949946        0.5476597869       -1.4259902271
H                -1.7152411909       -1.1987311805       -0.9782786641
H                 2.0957133684       -0.7528206532        0.6908932814
H                 2.7607298319        0.0290944129       -0.8334174231
H                 1.9447344170        1.0644631202        0.4527008296
H                 0.6397432385        1.9305336333        0.9346911012
H                -1.1865830345        1.8326755390        1.4089729995



