%nprocshared=20
%mem=5GB
#p m062x/6-311+g(2df,2p) opt=(calcfc,verytight,gdiis,maxcycles=900) freq iop(7/33=1,2/16=3) 

Gaussian input prepared by ASE

0 1
O                 0.8378624245        0.4531195767       -0.7961002763
C                -0.1482228695        0.1649336087        0.2695455304
C                 0.3291714448        0.7038765426        1.5989742357
C                -1.4904905788        0.6933959913       -0.1666292187
C                 2.0673494731       -0.2618648427       -0.5070302245
H                -0.2252303094       -0.9617632015        0.3541414501
H                 0.3160279722        1.8221066650        1.6208693286
H                 1.3857110224        0.3662593880        1.7797991543
H                -0.3092841647        0.3329241843        2.4396817868
H                -2.2624480839        0.4869448225        0.6155832811
H                -1.8127424677        0.1913206032       -1.1130090186
H                -1.4685029923        1.7970935642       -0.3505248635
H                 2.3970502159       -0.0537178527        0.5530233674
H                 1.9147532829       -1.3717259233       -0.6335043676
H                 2.8447580783        0.0966710818       -1.2275741735



