#p m062x/6-311+g(2df,2p) opt=(calcfc,verytight,gdiis,maxcycles=900) freq iop(7/33=1,2/16=3) 

Gaussian input prepared by ASE

0 2
O                -0.5382000000       -0.4770000000        0.9758000000
C                 0.3013000000       -0.6058000000       -0.1374000000
C                 1.5935608499       -1.2427207617        0.3072276299
C                -1.7645000000        0.0793000000        0.6659000000
H                -0.2613171987       -1.2725830039       -0.8399269201
H                 0.4435430324        0.3467018404       -0.6764349096
H                 1.6207782623       -2.2815388706       -0.1076476395
H                 1.6307587595       -1.2927938992        1.4251165405
H                 2.4974846056       -0.7122219013       -0.0641958523
H                -2.1161063614       -0.1326310774       -0.3548187394
H                -2.4760059198       -0.2669786832        1.4415623361



