%nprocshared=20
%mem=5GB
#p m062x/6-311+g(2df,2p) opt=(calcfc,verytight,gdiis,maxcycles=900) freq iop(7/33=1,2/16=3) 

Gaussian input prepared by ASE

0 2
O                 0.4394944413       -0.2649730538        1.0116480265
C                -0.0351377170        0.6979552766        0.0119770886
C                -0.0772828851        0.1330394706       -1.3797999301
C                 1.7520000034       -0.7008248714        0.7094516420
H                -1.0544208287        1.0127562514        0.3571139368
H                 0.6329563905        1.6043825838        0.0490485065
H                 0.8814152970       -0.4089568901       -1.6001236410
H                -0.2040818186        0.9525936964       -2.1308313932
H                -0.9230306308       -0.5891233300       -1.5028313395
H                 1.9212224069       -0.7693818924       -0.4021818661
H                 1.9542549688       -1.6506623046        1.2646707071



