%nprocshared=20
%mem=5GB
#p m062x/6-311+g(2df,2p) Opt=(CalcFC,ModRedun)

Gaussian Input Prepared from Scan Object

0 1
O     0.8364563258     -0.8100074684     0.2079865612
C     -0.4193094784     -0.1800867141     0.3829750846
C     -1.4394550112     -1.2925406483     0.522619362
C     -0.7574263779     0.7511699371     -0.7740476952
C     1.9378702268     0.0579153222     0.2615410624
H     -0.3866957019     0.4034298299     1.3141874919
H     -2.4307936248     -0.8830523694     0.7131349912
H     -1.1673914803     -1.9553206876     1.3419866444
H     -1.4745478423     -1.8774545271     -0.3969429406
H     -1.7596129398     1.1594681002     -0.645464135
H     -0.7263874951     0.1963230606     -1.7128225721
H     -0.064278683     1.5884562842     -0.8413130052
H     2.832803086     -0.5578945181     0.3131358639
H     2.004352516     0.6962501466     -0.6238865269
H     1.8951401982     0.6965720724     1.1513686132

B 3 2
B 7 3
B 15 5
B 1 5
B 12 4
B 4 2
B 9 3
B 6 2
B 8 3
B 10 4
B 14 5
B 13 5
B 2 1
B 11 4
D 2 1 5 13 S 72 10.0


