%nprocshared=20
%mem=5GB
#p m062x/6-311+g(2df,2p) opt=(calcfc,verytight,gdiis,maxcycles=900) freq iop(7/33=1,2/16=3) 

Gaussian input prepared by ASE

0 2
O                -0.4427502347       -0.4193385318        1.1830243868
C                 0.5895604198       -0.4034962212        0.2288368823
C                -1.6577447904       -0.0057116293        0.6081255215
C                 0.9244036103        0.9490489547       -0.2891015069
H                 0.3385909178       -1.0959471472       -0.6094273387
H                 1.4855756540       -0.8454038335        0.7103744740
H                -1.9947987233       -0.7139577937       -0.1582650493
H                -2.4108781171        0.0413529050        1.4079517100
H                -1.5582757519        0.9991581482        0.1423329275
H                 1.9032191260        1.0964317569       -0.7576025163
H                 0.4852693056        1.8278594513        0.1851172015



