%nprocshared=20
%mem=5GB
#p m062x/6-311+g(2df,2p) opt=(calcfc,verytight,gdiis,maxcycles=900) freq iop(7/33=1,2/16=3) 

Gaussian input prepared by ASE

0 2
O                -0.5341170292        0.6441885277        0.4949389431
C                 0.4934883100       -0.2989714176        0.3192498867
C                -1.7746171546        0.0058110642        0.6722560118
C                 0.2800831711       -1.2402741743       -0.8113101324
H                 0.6671458102       -0.8574486518        1.2695693758
H                 1.4247599971        0.2797209515        0.1523598723
H                -2.5396973990        0.7856707104        0.7673540763
H                -2.0136032769       -0.6383171545       -0.1863074868
H                -1.7813297286       -0.6209410323        1.5908183945
H                 1.1157654421       -1.8789578445       -1.1162904783
H                -0.4185171105       -0.9646838546       -1.6025356580



