%nprocshared=20
%mem=5GB
#p m062x/6-311+g(2df,2p) opt=(calcfc,verytight,gdiis,maxcycles=900) freq iop(7/33=1,2/16=3) 

Gaussian input prepared by ASE

0 2
O                 3.2644796214       -0.8468161128       -2.1930168894
C                -0.0896390606        0.3534989730       -0.7802818541
C                 2.1026408350       -0.0599537354       -2.1618506664
C                -1.2146510375       -0.4494466004       -0.1573991541
C                 1.1355146664       -0.4548569331       -1.0875688930
H                 0.1696916870        1.1724467673       -0.0921860660
H                -0.4595238309        0.8538119122       -1.7111097864
H                -2.0187093858        0.2164274277        0.1904409260
H                -1.6474473897       -1.1680800707       -0.8968048634
H                -0.8520190184       -1.0400553206        0.7181423117
H                 2.4325480773        1.0006366289       -2.0191248428
H                 1.6099455194       -0.0748608833       -3.1404850276
H                 1.4363391821       -1.2264332994       -0.3671390133
H                 2.9922389582       -1.7706672743       -2.0139152068



