%nprocshared=20
%mem=5GB
#p m062x/6-311+g(2df,2p) opt=(calcfc,verytight,gdiis,maxcycles=900) freq iop(7/33=1,2/16=3) 

Gaussian input prepared by ASE

0 2
O                -0.8810057422       -0.8633197191      -12.5021724465
C                -2.1000649266        2.7000817494      -11.7738970805
C                -0.8131444478        0.5384036184      -12.5258289433
C                -3.5388988700        3.1717851489      -11.6990025804
C                -1.9489409576        1.2086442151      -11.8144171632
H                -1.5618628831        3.1043297718      -10.9030780196
H                -1.6079927300        3.1522995363      -12.6721912676
H                -4.1068628563        2.8519706841      -12.5855838730
H                -4.0461354146        2.7592730987      -10.7918022463
H                -3.5762198378        4.2862800885      -11.6406787008
H                 0.1675686811        0.8154526590      -12.0616016735
H                -0.7503870769        0.8945966891      -13.5601809718
H                -2.5555340462        0.6106474981      -11.1221098316
H                -1.7961102960       -1.1109325255      -12.7490831866



