%nprocshared=20
%mem=5GB
#p m062x/6-311+g(2df,2p) opt=(calcfc,verytight,gdiis,maxcycles=900) freq iop(7/33=1,2/16=3) 

Gaussian input prepared by ASE

0 2
O                 1.9137910000       -0.8121030000        0.0625960000
C                -1.0007480000       -0.0572870000       -0.5308820000
C                 1.4747280000        0.5359360000       -0.0799420000
C                -2.2986150000       -0.2523820000        0.2492330000
C                 0.0294420000        0.6995970000        0.2305470000
H                -1.2223840000        0.4745330000       -1.4673910000
H                -0.5861050000       -1.0222450000       -0.8309090000
H                -2.1187150000       -0.8251450000        1.1589760000
H                -3.0421620000       -0.7821010000       -0.3444650000
H                -2.7229890000        0.7091860000        0.5403400000
H                 2.0806150000        1.2060570000        0.5354210000
H                 1.6796240000        0.7796000000       -1.1279120000
H                -0.2854710000        1.5100230000        0.8760620000
H                 1.6784190000       -1.1082630000        0.9453750000



