%nprocshared=20
%mem=5GB
#p m062x/6-311+g(2df,2p) opt=(calcfc,verytight,gdiis,maxcycles=900) freq iop(7/33=1,2/16=3) 

Gaussian input prepared by ASE

0 2
O                -0.9101244464       -0.8763050341      -12.4666626483
C                -2.0961489114        2.7135131727      -11.7900912645
C                -0.8327092552        0.5238798985      -12.5256723313
C                -3.5292880287        3.2026515877      -11.7178951325
C                -1.9747039224        1.2200156759      -11.8499460188
H                -1.5531932229        3.0983707956      -10.9134570931
H                -1.5889874000        3.1687661709      -12.6784044576
H                -4.0553834147        2.7794210174      -10.8489933549
H                -3.5571233894        4.3171746915      -11.6311138342
H                -4.0905278495        2.9091699942      -12.6375537202
H                 0.1411382055        0.8112637378      -12.0533450908
H                -0.7447406251        0.8500649295      -13.5680546776
H                -2.7005229960        0.6213935352      -11.2845409470
H                -1.8252699804       -1.1226822390      -12.7146551575



