%nprocshared=20
%mem=5GB
#p m062x/6-311+g(2df,2p) opt=(calcfc,verytight,gdiis,maxcycles=900) freq iop(7/33=1,2/16=3) 

Gaussian input prepared by ASE

0 2
O                -5.2069433704        2.8191379966      -14.4361205331
C                -1.8382336543        1.5315694745      -13.1217380987
C                -3.9983126543        2.1064764738      -14.4724309440
C                -1.1387901880        1.2926791816      -14.4453946499
C                -3.1410652301        2.2624423062      -13.2533475166
H                -1.1766386890        2.0868746146      -12.4395855914
H                -2.0018075223        0.5352527495      -12.6378321232
H                -0.9854885592        2.2367256226      -14.9896057284
H                -0.1392531372        0.8192979262      -14.2801571816
H                -1.7391171473        0.6151644894      -15.0992102843
H                -4.2030388487        1.0201111544      -14.6512016020
H                -3.4602997459        2.4474670378      -15.3640382879
H                -3.3149125910        3.1199965232      -12.5906088426
H                -5.7279456871        2.4650060960      -13.6858935387



