%nprocshared=20
%mem=5GB
#p m062x/6-311+g(2df,2p) opt=(calcfc,verytight,gdiis,maxcycles=900) freq iop(7/33=1,2/16=3) 

Gaussian input prepared by ASE

0 2
O                -0.5273682306       -1.5291245678       -3.6622874589
C                 2.0474184910        1.1919196844       -3.8926414755
C                 0.8142941891       -1.1171166254       -3.6758707877
C                 2.3035158032        0.8675289170       -5.3512508120
C                 1.0109593812        0.3098272374       -3.2629338618
H                 1.7475763730        2.2454820460       -3.7853810712
H                 3.0155485402        1.0992901721       -3.3379231675
H                 3.3073202376        1.1932364958       -5.6629910895
H                 2.2083226233       -0.2340591238       -5.5183124681
H                 1.5570972532        1.3770588237       -6.0070953991
H                 1.3615639656       -1.8137310912       -2.9908266668
H                 1.2534816293       -1.2691509088       -4.6681893248
H                 0.3017420757        0.7599655200       -2.5563710337
H                -1.0643637295       -0.7765724048       -3.9863159085



