#p m062x/6-311+g(2df,2p) opt=(calcfc,verytight,gdiis,maxcycles=900) freq iop(7/33=1,2/16=3) 

Gaussian input prepared by ASE

0 2
O                -1.8478422525       -1.4314809214       -0.5450587786
C                -0.9139176300       -0.3999275446        1.4310520913
C                 0.3429386749       -1.2277512973        1.5109595590
C                -1.4213000000       -0.2396000000        0.0213000000
C                 0.1615202614       -2.6199208144        0.9598601625
H                -1.7275306524       -0.9038366028        2.0144313512
H                -0.6539250700        0.5968750549        1.8644988198
H                 1.1529166396       -0.7128703755        0.9487698641
H                 0.6312508674       -1.2264568136        2.5939591823
H                -2.2622113274        0.4952641509        0.0811116986
H                -0.6574114651        0.2301782100       -0.6240646098
H                 1.1518188746       -3.1267065283        1.0940085389
H                -0.6512050938       -3.1415519838        1.5213036148
H                -1.0975577575       -2.0615907507       -0.6504920249



