%nprocshared=20
%mem=5GB
#p m062x/6-311+g(2df,2p) Opt=(CalcFC,ModRedun)

Gaussian Input Prepared from Scan Object

0 2
O     -1.8821522116     -1.400694618     -0.5942710224
C     -0.9342777166     -0.4005870772     1.4420326224
C     0.3656912343     -1.2019444093     1.5671336492
C     -1.3989502816     -0.2152531748     0.0036941137
C     0.2401701582     -2.633607747     1.1807183118
H     -1.7298525257     -0.8920266116     2.0075839129
H     -0.7854253669     0.5869986664     1.883890719
H     1.1484266109     -0.7213868816     0.9737796962
H     0.7083399964     -1.140499551     2.6097646169
H     -2.2301626096     0.4885610041     -0.0269394541
H     -0.5838462332     0.2138132133     -0.5924790412
H     1.0985178759     -3.1889528079     0.8328578715
H     -0.6229225188     -3.199728722     1.5039506275
H     -1.1860123426     -2.0640675     -0.5700771543

B 11 4
B 1 4
B 7 2
B 6 2
B 3 5
B 14 1
B 2 3
B 8 3
B 12 5
B 10 4
B 4 2
B 13 5
B 9 3
D 7 2 4 11 S 72 10.0


