%nprocshared=20
%mem=5GB
#p m062x/6-311+g(2df,2p) opt=(calcfc,verytight,gdiis,maxcycles=900) freq iop(7/33=1,2/16=3) 

Gaussian input prepared by ASE

0 2
O                57.5712857255      -18.4779008129       -2.9107404367
C                54.2058780798      -16.6380764625       -3.1581895941
C                56.5443161225      -17.6733861426       -3.5753786255
C                54.4424180500      -15.7691930495       -4.3640302881
C                55.3424802629      -17.4835641539       -2.7583252953
H                53.2917620530      -17.2863257193       -3.3460905292
H                53.8964936215      -15.9856356250       -2.2865755560
H                55.3131477986      -15.0848628598       -4.2039282850
H                53.5436865751      -15.1356565049       -4.5715942266
H                54.6484663490      -16.3843647461       -5.2763105918
H                57.0263867354      -16.6898614764       -3.8595385975
H                56.2921228531      -18.1740049332       -4.5736252062
H                55.2244449878      -18.0984608175       -1.8389088664
H                57.0698591719      -19.0509090812       -2.2983326339



