%nprocshared=20
%mem=5GB
#p m062x/6-311+g(2df,2p) opt=(calcfc,verytight,gdiis,maxcycles=900) freq iop(7/33=1,2/16=3) 

Gaussian input prepared by ASE

0 1
O                 2.0299170000       -0.6674730000       -0.2650850000
C                 0.0062560000        0.7107820000       -0.2095500000
C                -0.9403160000       -0.3735960000        0.2944660000
C                 1.4434200000        0.5152930000        0.2466410000
C                -2.3866770000       -0.1178260000       -0.1135620000
H                -0.8699560000       -0.4354600000        1.3845720000
H                -0.6274950000       -1.3450590000       -0.0974110000
H                -0.3400960000        1.6859930000        0.1450420000
H                -0.0161050000        0.7391580000       -1.3018880000
H                 1.4909560000        0.5239180000        1.3419940000
H                 2.0672580000        1.3318960000       -0.1143880000
H                -2.4780380000       -0.0699060000       -1.1992760000
H                -3.0507920000       -0.9033090000        0.2446880000
H                -2.7400460000        0.8316790000        0.2902990000
H                 1.5888740000       -1.4270350000        0.1190750000



