%nprocshared=20
%mem=5GB
#p m062x/6-311+g(2df,2p) opt=(calcfc,verytight,gdiis,maxcycles=900) freq iop(7/33=1,2/16=3) 

Gaussian input prepared by ASE

0 2
O                 1.4138445924        0.0602953216       -0.5466829093
O                 0.7177724725       -1.1826635022        1.2886398298
C                -0.8973565253       -0.6342703196       -0.4537594100
C                -1.7509566742        0.5328179394       -0.0472483997
C                 0.4363580634       -0.6304643586        0.1816644253
C                 2.6891438979        0.0761993471        0.0930201416
H                -0.7756969840       -0.6463447818       -1.5569959637
H                -1.4214003070       -1.5849879791       -0.1807595078
H                -1.2445814724        1.1617393172        0.7233550427
H                -2.7237663092        0.1852958441        0.3825562389
H                -1.9805578430        1.1769423352       -0.9061942397
H                 3.3169080646        0.8648753428       -0.3383734892
H                 2.6340452292       -0.0004215922        1.1842682932



