%nprocshared=20
%mem=5GB
#p m062x/6-311+g(2df,2p) Opt=(CalcFC,ModRedun)

Gaussian Input Prepared from Scan Object

0 2
O     38.9610092663     -32.3487888672     1.1742559562
C     39.5952941572     -33.083983796     4.8262141181
C     39.9271816865     -32.5808322274     3.4211229628
C     38.6039835518     -32.1894422481     5.5640359768
C     38.7622075338     -32.6153261371     2.4970420057
H     39.198338412     -34.0986682342     4.7555307573
H     40.520117681     -33.1463211408     5.4014686241
H     40.3322640127     -31.5591010817     3.494147021
H     40.731694532     -33.1941557715     2.9976119146
H     37.6303641538     -32.1770532128     5.0754483998
H     38.4527733634     -32.5331629198     6.5865023342
H     38.9686588379     -31.1618468171     5.6057652737
H     37.7726599652     -32.3274171591     2.8189967048
H     39.8698652898     -32.5490594087     0.9363792738

B 10 4
B 14 1
B 9 3
B 13 5
B 3 2
B 12 4
B 7 2
B 2 4
B 11 4
B 8 3
B 6 2
B 1 5
B 5 3
D 14 1 5 13 S 72 10.0


