#p m062x/6-311+g(2df,2p) opt=(calcfc,verytight,gdiis,maxcycles=900) freq iop(7/33=1,2/16=3) 

Gaussian input prepared by ASE

0 2
O                 1.5160018072       -6.4993112080      -13.7181035005
C                 2.2383477597       -5.8681727680      -11.1471038167
C                 3.2255918373       -5.6233772889      -12.2470546950
C                 2.0664392359       -7.3117269686      -10.7877541551
C                 2.8663592098       -6.2951252257      -13.5325123912
H                 2.5478668200       -5.3207501851      -10.2259007679
H                 1.2547314181       -5.4803144154      -11.4891404240
H                 4.2483169687       -5.9187893272      -11.9246999475
H                 3.2642520524       -4.5163364892      -12.4077557701
H                 3.0920228570       -7.7045735690      -10.5698409507
H                 1.3891165728       -7.4918044766       -9.9428918935
H                 1.7187475530       -7.8517805992      -11.7017908610
H                 3.3648195511       -5.7619803668      -14.3565632255
H                 0.9860405665       -6.5300207391      -12.8903258081



