%nprocshared=20
%mem=5GB
#p m062x/6-311+g(2df,2p) opt=(calcfc,verytight,gdiis,maxcycles=900) freq iop(7/33=1,2/16=3) 

Gaussian input prepared by ASE

0 2
O                 1.1363285097       -0.8157282879        0.8279471071
O                 1.1027892301        0.2572295830       -1.2319719316
C                -0.9285964866       -0.8486164329       -0.4841061977
C                -1.1100121317       -2.3331601470       -0.2965714534
C                 0.5003165636       -0.3937515595       -0.4058224846
C                 2.4589358714       -0.3262309226        0.9456745871
H                -1.5158022003       -0.3124683431        0.3106231919
H                -1.3604106262       -0.5351974590       -1.4694861123
H                -2.1963703678       -2.5995743330       -0.3112916359
H                -0.6842847884       -2.6650413986        0.6831806480
H                -0.6015006780       -2.9034529603       -1.1144791197
H                 2.9505982638       -0.1476681746       -0.0444547501
H                 3.0254131868       -0.9353493638        1.6908123357



