%nprocshared=20
%mem=5GB
#p m062x/6-311+g(2df,2p) opt=(calcfc,verytight,gdiis,maxcycles=900) freq iop(7/33=1,2/16=3) 

Gaussian input prepared by ASE

0 2
O                -0.8524072853       -0.3188983749       -0.6888377801
C                 0.4365699508       -0.7282248946       -0.1215908543
C                 1.0240613553        0.3117632153        0.7895316329
C                -1.8004276437       -0.0731728762        0.3334469746
H                 1.1029732103       -0.9242862505       -1.0021161281
H                 0.2913750379       -1.7051745405        0.4209512726
H                 1.3210493717        1.2241285021        0.2145032612
H                 0.2666593710        0.6173513399        1.5604413621
H                 1.9294020880       -0.0817623611        1.3154854505
H                -1.3167155529        0.3643152305        1.2544579186
H                -2.6317352724        0.5468900406       -0.0912113953



