%nprocshared=20
%mem=5GB
#p m062x/6-311+g(2df,2p) opt=(calcfc,verytight,gdiis,maxcycles=900) freq iop(7/33=1,2/16=3) 

Gaussian input prepared by ASE

0 2
O                 1.0725930000       -0.7025270000        0.0039020000
O                 0.0659830000        1.2935160000       -0.0069740000
C                -1.2764900000       -0.7145170000       -0.0102890000
C                 2.3306770000       -0.0316400000        0.0052070000
C                -0.0032330000        0.0968870000       -0.0033130000
C                -2.4994880000        0.1194910000        0.0129600000
H                -1.2359340000       -1.3665730000       -0.8911480000
H                -1.2271840000       -1.4048940000        0.8394560000
H                 2.4227200000        0.5973640000        0.8883440000
H                 2.4284250000        0.5901960000       -0.8824010000
H                 3.0847020000       -0.8113310000        0.0108220000
H                -3.4704090000       -0.3478900000        0.0222500000
H                -2.4197150000        1.1938860000        0.0098720000



