%nprocshared=20
%mem=5GB
#p m062x/6-311+g(2df,2p) opt=(calcfc,verytight,gdiis,maxcycles=900) freq iop(7/33=1,2/16=3) 

Gaussian input prepared by ASE

0 2
O                 1.4529824340        0.3429709342        0.9626897697
O                -0.1990475622       -0.3316142814       -0.4964145430
C                -0.8396165298        0.6153075827        1.6589279457
C                 2.3280666385       -0.1205602618       -0.0330265380
C                 0.1325427029        0.1659928382        0.6174062193
C                -1.2468403491       -0.5393122404        2.5348230050
H                -1.7378013315        1.0454782448        1.1479111519
H                -0.3722016909        1.4189737560        2.2817632933
H                 1.9918035517        0.2002607978       -1.0309979976
H                 2.3885781545       -1.2376533057       -0.0052456499
H                 3.3362637881        0.3051844463        0.1802864037
H                -0.5209778327       -0.8659483123        3.3050264157
H                -1.8206005322       -1.3480657865        2.0576767444



