%nprocshared=20
%mem=5GB
#p m062x/6-311+g(2df,2p) Opt=(CalcFC,ModRedun)

Gaussian Input Prepared from Scan Object

0 1
O     -1.938481     -0.438558     -0.550849
O     2.081068     0.37626     -0.285213
O     0.678019     -1.243787     0.347561
N     -1.499758     0.497497     0.40822
C     -0.187873     0.981675     0.054915
C     0.879146     -0.093039     0.063286
H     0.106701     1.773145     0.746041
H     -0.226105     1.41394     -0.94536
H     -1.459233     0.005166     1.296325
H     -1.343953     -1.199018     -0.488492
H     2.708414     -0.358857     -0.267259

B 2 6
B 6 3
B 5 7
B 1 10
B 5 4
B 5 6
B 4 9
B 2 11
B 8 5
B 1 4
D 9 4 5 7 S 72 10.0


