%nprocshared=20
%mem=5GB
#p m062x/6-311+g(2df,2p) Opt=(CalcFC,ModRedun)

Gaussian Input Prepared from Scan Object

0 1
O     -66.5498515405     -37.7043461786     -95.7248230621
O     -70.4141040794     -38.254503685     -96.6066153164
O     -70.7841481186     -36.0657752062     -96.8711864198
N     -67.7856420541     -37.8412139927     -96.3794002367
C     -68.6809342643     -36.7815313652     -95.9575369552
C     -70.0609910591     -36.9579014318     -96.542224212
H     -68.2905626672     -35.8239339858     -96.2909205177
H     -68.8055592364     -36.7351684701     -94.8630662306
H     -68.1699016825     -38.7493080133     -96.1394425125
H     -66.7081915662     -37.7266425934     -94.7711733149
H     -71.3049527489     -38.2992054382     -96.9778449298

B 10 1
B 9 4
B 7 5
B 8 5
B 2 6
B 11 2
B 4 1
B 5 4
B 6 5
B 3 6
D 8 5 6 3 S 72 10.0


