%nprocshared=20
%mem=5GB
#p m062x/6-311+g(2df,2p) opt=(calcfc,verytight,gdiis,maxcycles=900) freq iop(7/33=1,2/16=3) 

Gaussian input prepared by ASE

0 2
O                -1.1974045963       -0.4839102668        0.8359577549
C                 0.0997994697        0.0456601800        0.7467595885
C                 0.1240123646        1.5356580198        0.5933089019
C                -1.9530094894       -0.2239327097       -0.3194383181
H                 0.6236383286       -0.2613145733        1.6605483665
H                 0.6337708249       -0.4377015315       -0.1101374576
H                 1.0982987479        1.8797064999        0.1652785914
H                -0.6909408709        1.8613555521       -0.0957433105
H                -0.0193724836        2.0475409212        1.5584761519
H                -2.8173842078       -0.9348499404       -0.3625660045
H                -1.3264073427       -0.2161982614       -1.2469003325



