%nprocshared=20
%mem=5GB
#p m062x/6-311+g(2df,2p) Opt=(CalcFC,ModRedun)

Gaussian Input Prepared from Scan Object

0 2
O     0.5842686728     -0.4607619526     -0.0057255205
C     -0.444057372     0.5154639189     0.0429001525
C     -1.7763131826     -0.1905193779     -0.0379359891
C     1.837195826     0.030157669     0.029523939
H     -0.3132809338     1.2103889726     -0.7930093363
H     -0.3504316749     1.0825152245     0.9734644412
H     -1.8523536996     -0.753538316     -0.9666348721
H     -1.8897560851     -0.8814551531     0.7956236236
H     -2.5883047474     0.5343484602     -0.0022425186
H     2.6091312008     -0.7157612706     -0.0630217257
H     1.9970639957     1.051649825     -0.292321194

B 11 4
B 10 4
B 8 3
B 7 3
B 9 3
B 1 2
B 5 2
B 4 1
B 2 3
B 6 2
D 2 1 4 10 S 36 10.0
D 4 1 2 6 F
D 6 2 3 7 F



