%nprocshared=20
%mem=5GB
#p m062x/6-311+g(2df,2p) opt=(calcfc,verytight,gdiis,maxcycles=900) freq iop(7/33=1,2/16=3) 

Gaussian input prepared by ASE

0 2
O                -0.1400255875       -0.0203093146       -2.0533635930
O                -0.7072199174        0.3350281053        0.1612027725
C                 0.4839632668       -1.7174192482       -0.3951289099
C                -0.7908824701        1.2751371917       -2.2570385718
C                -0.1844703571       -0.3774881417       -0.6674728002
C                -0.3405451488       -2.8400195992       -0.8533840266
H                 1.4772398808       -1.7168059113       -0.9265556274
H                 0.6797534364       -1.7929849490        0.7067110482
H                -0.2247647686        2.0779004489       -1.7133216255
H                -1.8483345507        1.2327724497       -1.8845641987
H                -0.7744237760        1.4716840358       -3.3568932850
H                -1.2047132439       -3.1425429209       -0.2197241473
H                -0.4913023620       -2.9519849115       -1.9511182386



