%nprocshared=20
%mem=5GB
#p m062x/6-311+g(2df,2p) Opt=(CalcFC,ModRedun)

Gaussian Input Prepared from Scan Object

0 2
O     -0.1537102354     0.0088184969     -1.9322372101
O     -0.6426942407     0.3575063026     0.2232454552
C     0.4803714854     -1.6860458297     -0.4166149097
C     -0.788017077     1.2470159821     -2.2450135134
C     -0.1610219638     -0.3267545538     -0.634853868
C     -0.4241166867     -2.7658186873     -0.9017852112
H     1.4253825435     -1.7021687533     -0.9614437688
H     0.6737390929     -1.7762901198     0.649288601
H     -0.2921248291     2.0668147611     -1.7292384036
H     -1.8334657724     1.2216662922     -1.9440732172
H     -0.7017609518     1.3635675535     -3.3199660025
H     -1.1685234383     -3.1841008394     -0.2431492228
H     -0.4797835247     -2.9912433703     -1.9548099322

B 4 1
B 9 4
B 12 6
B 13 6
B 3 6
B 7 3
B 1 5
B 10 4
B 8 3
B 11 4
B 2 5
B 5 3
D 4 1 5 3 S 36 10.0


