%nprocshared=20
%mem=5GB
#p m062x/6-311+g(2df,2p) opt=(calcfc,verytight,gdiis,maxcycles=900) freq iop(7/33=1,2/16=3) 

Gaussian input prepared by ASE

0 1
O                 1.1432560000       -0.7007320000        0.0000010000
O                 0.1018610000        1.2777300000       -0.0000010000
C                -1.2111310000       -0.7436850000       -0.0000010000
C                -2.4607340000        0.1198650000        0.0000020000
C                 2.3880740000       -0.0066710000        0.0000010000
C                 0.0512490000        0.0788810000       -0.0000010000
H                -1.1719530000       -1.4009410000       -0.8704270000
H                -1.1719520000       -1.4009460000        0.8704200000
H                -2.4842730000        0.7635890000        0.8770620000
H                -3.3541950000       -0.5014980000       -0.0000000000
H                -2.4842740000        0.7635940000       -0.8770540000
H                 3.1570780000       -0.7717670000        0.0000010000
H                 2.4719400000        0.6208200000       -0.8851530000
H                 2.4719400000        0.6208210000        0.8851540000



